--- Job thunder.gms Start 06/25/20 14:48:04 31.1.0 r55b6ce3 WEX-WEI x86 64bit/MS Windows
--- Applying:
    E:\31.1\gmsprmNT.txt
--- GAMS Parameters defined
    Input C:\Users\hasee\Documents\GitHub\GAMS-MIRO\Thundercloud\thunder.gms
    PageSize 0
    ScrDir C:\Users\hasee\Documents\GitHub\GAMS-MIRO\Thundercloud\225a\
    SysDir E:\31.1\
    LogOption 3
    ErrMsg 1
    ErrorLog 99
    IDE 1
    GDX C:\Users\hasee\Documents\GitHub\GAMS-MIRO\Thundercloud\res.gdx
    LstTitleLeftAligned 1
    IDCGenerateJSON conf_thunder/thunder_io.json
    IDCGenerateGDX data_thunder/default.gdx
GAMS 31.1.0   Copyright (C) 1987-2020 GAMS Development. All rights reserved
*** License has expired 16 days ago
Licensee: CS526 Advanced Linear Programming              G200210/0001AS-GEN
          Course License UW-Madison, Prof Ferris, Spring 2020        DCE515
          E:\31.1\gamslice.txt
          Evaluation license: Not for commercial or production use
--- Starting compilation
--- thunder.gms(187) 3 Mb
--- Starting execution: elapsed 0:00:00.008
--- thunder.gms(151) 4 Mb
--- Generating LP model airplane
--- thunder.gms(169) 5 Mb
---   1,285 rows  2,822 columns  7,976 non-zeroes
--- Executing CPLEX: elapsed 0:00:05.579

IBM ILOG CPLEX   31.1.0 r55b6ce3 Released May 01, 2020 WEI x86 64bit/MS Window
--- GAMS/Cplex licensed for continuous and discrete problems.
Cplex 12.10.0.0

Reading data...
Starting Cplex...
Space for names approximately 0.09 Mb
Use option 'names no' to turn use of names off
Version identifier: 12.10.0.0 | 2019-11-26 | 843d4de2ae
CPXPARAM_Advance                                 0
CPXPARAM_Threads                                 1
CPXPARAM_Parallel                                1
CPXPARAM_Simplex_Limits_Iterations               2000000000
CPXPARAM_TimeLimit                               1000
CPXPARAM_Tune_TimeLimit                          200
Tried aggregator 1 time.
LP Presolve eliminated 511 rows and 958 columns.
Aggregator did 44 substitutions.
Reduced LP has 730 rows, 1820 columns, and 3627 nonzeros.
Presolve time = 0.00 sec. (4.03 ticks)
Initializing dual steep norms . . .

Iteration log . . .
Iteration:     1   Dual objective     =             1.290000
Iteration:   109   Dual objective     =            89.520000
Iteration:   177   Dual objective     =           115.590000
LP status(1): optimal
Cplex Time: 0.00sec (det. 7.59 ticks)

Optimal solution found.
Objective :         144.800000

--- Restarting execution
--- thunder.gms(169) 3 Mb
--- Reading solution for model airplane
--- Executing after solve: elapsed 0:00:05.718
--- thunder.gms(187) 4 Mb
--- GDX File C:\Users\hasee\Documents\GitHub\GAMS-MIRO\Thundercloud\res.gdx
--- GDX File C:\Users\hasee\Documents\GitHub\GAMS-MIRO\Thundercloud\data_thunder/default.gdx
*** Status: Normal completion
--- Job thunder.gms Stop 06/25/20 14:48:09 elapsed 0:00:05.763

Warning in eval(ei, envir) :
  The alias of symbol: 'xcoordcloud' was selected to be overwritten. However, this symbol could not be found.
Warning in eval(ei, envir) :
  The alias of symbol: 'lowcloud' was selected to be overwritten. However, this symbol could not be found.
Warning in eval(ei, envir) :
  The alias of symbol: 'highcloud' was selected to be overwritten. However, this symbol could not be found.
Warning in eval(ei, envir) :
  The alias of symbol: 'flowoutput' was selected to be overwritten. However, this symbol could not be found.
Warning in eval(ei, envir) :
  The alias of symbol: 'minheight' was selected to be overwritten. However, this symbol could not be found.
TRACE [2020-06-25 14:48:14] Logging facility initialised.
DEBUG [2020-06-25 14:48:14] Database connection established.
DEBUG [2020-06-25 14:48:14] Access Control initialised.
WARN [2020-06-25 14:48:14] There are orphaned tables in your database: 'thunder_xcoordcloud', 'thunder_lowcloud', 'thunder_highcloud', 'thunder_flowoutput', 'thunder_minheight'.

This could be caused because you used a different database schema in the past (e.g. due to different inputs and/or outputs). 
Note that you can remove orphaned database tables using the configuration mode ('Database management' section).
INFO [2020-06-25 14:48:14] New data: 'default.gdx' is being stored in the database. Please wait a until the import is finished.
DEBUG [2020-06-25 14:48:15] Db: Data was imported from table: '_sys_metadata_thunder' (Db.importDataset).
DEBUG [2020-06-25 14:48:15] Db: 1391 rows in table: '_sys_metadata_thunder' were deleted. (Db.deleteRows)
DEBUG [2020-06-25 14:48:15] Db: Metadata (table: '_sys_metadata_thunder') was written to database. (Db.writeMetadata).
DEBUG [2020-06-25 14:48:15] Db: Metadata (table: '_sys_metadata_thunder') was added for scenario: 'default' (Scenario.writeMetadata).
DEBUG [2020-06-25 14:48:15] Db: Data was added to table: 'thunder_flowop' (Db.exportScenDataset).
DEBUG [2020-06-25 14:48:15] Db: Data was added to table: 'thunder__scalars_out' (Db.exportScenDataset).
DEBUG [2020-06-25 14:48:15] Db: Data was added to table: 'thunder_cloudsinfo' (Db.exportScenDataset).
DEBUG [2020-06-25 14:48:15] Db: Data was added to table: 'thunder_crcost' (Db.exportScenDataset).
DEBUG [2020-06-25 14:48:15] Db: Data was added to table: 'thunder_climbdis' (Db.exportScenDataset).
DEBUG [2020-06-25 14:48:15] Db: Data was added to table: 'thunder_upcost' (Db.exportScenDataset).
DEBUG [2020-06-25 14:48:15] Db: Data was added to table: 'thunder_downcost' (Db.exportScenDataset).
DEBUG [2020-06-25 14:48:15] Db: Data was added to table: 'thunder_offsetcr' (Db.exportScenDataset).
DEBUG [2020-06-25 14:48:15] Db: Data was added to table: 'thunder_descenddis' (Db.exportScenDataset).
DEBUG [2020-06-25 14:48:15] Db: Data was added to table: 'thunder__scalars' (Db.exportScenDataset).
DEBUG [2020-06-25 14:48:16] Db: Data was imported from table: '_sys_scenlocks_thunder' (Db.importDataset).
DEBUG [2020-06-25 14:48:16] Db: hasee: Lock was added for scenario: '1' (Scenario.lock).
DEBUG [2020-06-25 14:48:17] Scenario: '1' unlocked.
DEBUG [2020-06-25 14:48:17] Db: 1 rows in table: '_sys_scenlocks_thunder' were deleted. (Db.deleteRows)
INFO [2020-06-25 14:48:21] Session started (model: 'thunder', user: 'hasee', workdir: 'C:/Users/hasee/Documents/GitHub/GAMS-MIRO/Thundercloud').
DEBUG [2020-06-25 14:48:21] Working directory was created: 'C:/Users/hasee/Documents/GitHub/GAMS-MIRO/Thundercloud'.
DEBUG [2020-06-25 14:48:21] Db: Data was imported from table: '_sys_metadata_thunder' (Db.importDataset).
DEBUG [2020-06-25 14:48:22] Sidebar menu item: 'inputData' selected.
DEBUG [2020-06-25 14:48:22] Loading and rendering scenarios: '1'.
DEBUG [2020-06-25 14:48:22] Db: Data was imported from table: 'thunder_flowop' (Db.importDataset).
DEBUG [2020-06-25 14:48:22] Db: Data was imported from table: 'thunder__scalars_out' (Db.importDataset).
DEBUG [2020-06-25 14:48:22] Db: Data was imported from table: 'thunder_cloudsinfo' (Db.importDataset).
DEBUG [2020-06-25 14:48:22] Db: Data was imported from table: 'thunder_crcost' (Db.importDataset).
DEBUG [2020-06-25 14:48:22] Db: Data was imported from table: 'thunder_climbdis' (Db.importDataset).
DEBUG [2020-06-25 14:48:22] Db: Data was imported from table: 'thunder_upcost' (Db.importDataset).
DEBUG [2020-06-25 14:48:23] Db: Data was imported from table: 'thunder_downcost' (Db.importDataset).
DEBUG [2020-06-25 14:48:23] Db: Data was imported from table: 'thunder_offsetcr' (Db.importDataset).
DEBUG [2020-06-25 14:48:23] Db: Data was imported from table: 'thunder_descenddis' (Db.importDataset).
DEBUG [2020-06-25 14:48:23] Db: Data was imported from table: 'thunder__scalars' (Db.importDataset).
DEBUG [2020-06-25 14:48:23] Db: A table named: '_sys_scripts_thunder' does not exist in the database (Db.importDataset).
DEBUG [2020-06-25 14:48:23] Scenario: 'New Scenario' closed.
DEBUG [2020-06-25 14:48:23] Db: Data was imported from table: '_sys_metadata_thunder' (Db.importDataset).
DEBUG [2020-06-25 14:48:23] Db: Data was imported from table: '_sys_scenlocks_thunder' (Db.importDataset).
DEBUG [2020-06-25 14:48:23] Db: hasee: Lock was added for scenario: '1' (Scenario.lock).
DEBUG [2020-06-25 14:48:23] Dataset: cloudsinfo loaded successfully (mode: scen, overwrite: FALSE)
DEBUG [2020-06-25 14:48:23] Dataset: crcost loaded successfully (mode: scen, overwrite: FALSE)
DEBUG [2020-06-25 14:48:23] Dataset: climbdis loaded successfully (mode: scen, overwrite: FALSE)
DEBUG [2020-06-25 14:48:23] Dataset: upcost loaded successfully (mode: scen, overwrite: FALSE)
DEBUG [2020-06-25 14:48:23] Dataset: downcost loaded successfully (mode: scen, overwrite: FALSE)
DEBUG [2020-06-25 14:48:23] Dataset: _scalars loaded successfully (mode: scen, overwrite: FALSE)
DEBUG [2020-06-25 14:48:23] Dataset: offsetcr loaded successfully (mode: scen, overwrite: FALSE)
DEBUG [2020-06-25 14:48:23] Dataset: descenddis loaded successfully (mode: scen, overwrite: FALSE)
DEBUG [2020-06-25 14:48:24] Scenario: '1' was loaded into UI
DEBUG [2020-06-25 14:48:26] Sidebar menu item: 'outputData' selected.
DEBUG [2020-06-25 14:48:29] Sidebar menu item: 'inputData' selected.
DEBUG [2020-06-25 14:48:30] Sidebar menu item: 'outputData' selected.
DEBUG [2020-06-25 14:48:34] Sidebar menu item: 'inputData' selected.
DEBUG [2020-06-25 14:48:43] Solve button clicked (model: 'thunder').
TRACE [2020-06-25 14:48:44] Dataset: Information of thunderstorm saved in dataTmp.
TRACE [2020-06-25 14:48:44] Dataset: cost to cruise saved in dataTmp.
TRACE [2020-06-25 14:48:44] Dataset: nautical distance to climb 2k feet saved in dataTmp.
TRACE [2020-06-25 14:48:44] Dataset: cost of going up 2k feet at 'upheight' saved in dataTmp.
TRACE [2020-06-25 14:48:44] Dataset: cost of going down 2k feet at 'downheight' saved in dataTmp.
TRACE [2020-06-25 14:48:44] Dataset: Scalars saved in dataTmp.
TRACE [2020-06-25 14:48:44] Dataset: decision made frequency saved in dataTmp.
TRACE [2020-06-25 14:48:44] Dataset: nautical distance to descend 2k feet saved in dataTmp.
DEBUG [2020-06-25 14:48:44] Db: A table named: '_sys_attach_thunder' does not exist in the database (Db.importDataset).
DEBUG [2020-06-25 14:48:44] Sidebar menu item: 'gamsinter' selected.
DEBUG [2020-06-25 14:48:52] Db: A table named: '_sys_attach_thunder' does not exist in the database (Db.importDataset).
DEBUG [2020-06-25 14:48:52] Sidebar menu item: 'outputData' selected.
DEBUG [2020-06-25 14:49:01] Sidebar menu item: 'inputData' selected.
INFO [2020-06-25 14:49:04] Session ended (model: 'thunder', user: 'hasee').
DEBUG [2020-06-25 14:49:05] Scenario: '1' unlocked.
